% MIT License
%
% Copyright (c) 2021 Johan Ludde Wessén
%
% Permission is hereby granted, free of charge, to any person obtaining 
% a copy of this software and associated documentation files (the "Software"),
% to deal in the Software without restriction, including without limitation 
% the rights to use, copy, modify, merge, publish, distribute, sublicense, 
% and/or sell copies of the Software, and to permit persons to whom the 
% Software is furnished to do so, subject to the following conditions:
% 
% The above copyright notice and this permission notice shall be included 
% in all copies or substantial portions of the Software.
%
% THE SOFTWARE IS PROVIDED "AS IS", WITHOUT WARRANTY OF ANY KIND, 
% EXPRESS OR IMPLIED, INCLUDING BUT NOT LIMITED TO THE WARRANTIES OF
% MERCHANTABILITY, FITNESS FOR A PARTICULAR PURPOSE AND
% NONINFRINGEMENT. IN NO EVENT SHALL THE AUTHORS OR COPYRIGHT HOLDERS BE
% LIABLE FOR ANY CLAIM, DAMAGES OR OTHER LIABILITY, WHETHER IN AN ACTION
% OF CONTRACT, TORT OR OTHERWISE, ARISING FROM, OUT OF OR IN CONNECTION
% WITH THE SOFTWARE OR THE USE OR OTHER DEALINGS IN THE SOFTWARE.

%-----------------------------------------------------------------------------%
% Dual Arm Multi Capacity Multi Tool Scheduling / Routing
% Assembly Configuration
% Auto Generated by python script, authored by Johan Ludde Wessen 
%-----------------------------------------------------------------------------%


task_durations = [|29, 28, 30, 33, 21, 30, 47, 54, 41, 41, 41, 44, 28, 28,  6,  6,  4,  5,  6
                  |29, 31, 30, 31, 23, 27, 44, 63, 50, 51, 49, 54, 32, 32,  6,  5,  5,  4,  7
                  |];


TRAY_TASKS = 1..4;
CAMERA_TASKS = 13..14;
OUTPUT_TASKS = { 12 };


empty_gripper_tasks = 15..19;


gripper_pick_tasks_orders = [|1, 7, -1
|2, 8, -1
|5, 11, -1
|6, 12, -1
|];

suction_pick_tasks_orders = [|3, 13, 9, -1
|4, 14, 10, -1
|];

fixture_task_orders = [|7, 15, 9, 17, 5, -1, -1, -1
|10, 18, 8, 16, 11, 19, 6, -1
|];

